\ Model Routes
\ LP format - for model browsing. Use MPS format to capture full model detail.
Maximize
  771.385206194839 R{0,0} + 1829.836024458567 R{0,1}
   + 1829.836024458567 R{0,2} - 249.2301939667805 R{0,3}
   + 234.7650315204939 R{0,4} + 397.2891588355392 R{0,5}
   + 116.5712220500383 R{0,6} + 753.1517500662167 R{0,7}
   + 594.9499701992759 R{0,8} + 569.3727437523091 R{0,9}
   + 1083.022260995467 R{0,10} + 1382.115304993751 R{0,11}
   + 753.1517500662167 R{0,12} + 691.9334623873286 R{0,13}
   + 1312.7704797333 R{0,14} + 1184.652920428918 R{0,15}
   + 687.6055393991746 R{0,16} + 688.0732646371659 R{0,17}
   - 256.140831891889 R{1,0} - 42.40991195541267 R{1,1}
   + 1076.479937477706 R{1,2} + 1076.479937477706 R{1,3}
   + 870.6977894059594 R{1,4} + 1074.826180937843 R{1,5}
   + 1147.510054935474 R{1,6} + 732.8077748118081 R{1,7}
   + 1843.504864125169 R{1,8} + 1200.664160400873 R{1,9}
   + 1114.739196380962 R{1,10} + 140.1679573555728 R{1,11}
   + 485.1671708747436 R{1,12} - 113.4149769908838 R{1,13}
   - 118.7034014128882 R{1,14} + 2.708893754114001 R{1,15}
   - 278.4443928850388 R{2,0} - 59.13410337035452 R{2,1}
   + 602.7748664658451 R{2,2} + 1100.505917706273 R{2,3}
   + 661.1183809175574 R{2,4} + 443.4135270578909 R{2,5}
   + 1000.527999503345 R{2,6} + 465.2175846111744 R{2,7}
   + 514.8624679471038 R{2,8} + 1197.56677738022 R{2,9}
   + 359.6260015013082 R{2,10} + 48.85429441728735 R{2,11}
   + 359.6260015013082 R{2,12} + 272.5004758048051 R{2,13}
   + 177.9883099738421 R{2,14} + 452.136102935272 R{2,15}
   - 260.2482995389823 R{3,0} + 436.7961973521265 R{3,1}
   + 1048.086677924126 R{3,2} + 1409.089395194246 R{3,3}
   + 754.0582931406489 R{3,4} + 526.9759077645808 R{3,5}
   + 1414.926802765739 R{3,6} + 109.0993875048949 R{3,7}
   + 983.9517577566503 R{3,8} + 1574.563312527699 R{3,9}
   + 1122.920343475314 R{3,10} + 260.0130690997095 R{3,11}
   + 867.3044357142294 R{3,12} + 1004.337696595783 R{3,13}
   + 671.817285945803 R{3,14} + 157.2998633700093 R{3,15}
   + 7.469529744848046 R{3,16} - 242.5208875955131 R{4,0}
   + 817.7894748373856 R{4,1} + 1338.413574514046 R{4,2}
   + 716.2472193780969 R{4,3} + 1780.333298223421 R{4,4}
   + 1219.819704233711 R{4,5} + 1280.693392418149 R{4,6}
   + 913.5149379291101 R{4,7} + 1638.859316145471 R{4,8}
   + 760.3884153678325 R{4,9} + 545.0524381183637 R{4,10}
   + 1280.693392418149 R{4,11} + 1081.404324689196 R{4,12}
   + 1416.167174628725 R{4,13} + 566.2388421051983 R{4,14}
   + 570.4512419764294 R{4,15} + 905.0595251285904 R{4,16}
   + 1081.404324689196 R{4,17} - 231.9775664337766 R{5,0}
   - 64.74596882665969 R{5,1} + 258.8096919427257 R{5,2}
   + 269.0523832468739 R{5,3} + 16.63961758837871 R{5,4}
   + 538.9745579230341 R{5,5} + 216.9957585732232 R{5,6}
   - 43.25369908670973 R{5,7} + 8.658761369416396 R{5,8}
   - 231.1436095783099 R{6,0} + 318.762552843264 R{6,1}
   + 1149.196169502638 R{6,2} + 1714.341530245978 R{6,3}
   + 400.6833940262086 R{6,4} + 1222.015033184065 R{6,5}
   + 824.6850214509439 R{6,6} + 399.2421061466382 R{6,7}
   + 1142.482551820367 R{6,8} + 486.7644243664311 R{6,9}
   + 1017.795874210039 R{6,10} + 1453.666396470767 R{6,11}
   + 1142.482551820367 R{6,12} + 564.8378915523898 R{6,13}
Subject To
 R00: R{0,0} <= 1
 R01: R{0,1} <= 1
 R02: R{0,2} <= 1
 R03: R{0,3} <= 1
 R04: R{0,4} <= 1
 R05: R{0,5} <= 1
 R06: R{0,6} <= 1
 R07: R{0,7} <= 1
 R08: R{0,8} <= 1
 R09: R{0,9} <= 1
 R010: R{0,10} <= 1
 R011: R{0,11} <= 1
 R012: R{0,12} <= 1
 R013: R{0,13} <= 1
 R014: R{0,14} <= 1
 R015: R{0,15} <= 1
 R016: R{0,16} <= 1
 R017: R{0,17} <= 1
 R018: R{1,0} <= 1
 R019: R{1,1} <= 1
 R020: R{1,2} <= 1
 R021: R{1,3} <= 1
 R022: R{1,4} <= 1
 R023: R{1,5} <= 1
 R024: R{1,6} <= 1
 R025: R{1,7} <= 1
 R026: R{1,8} <= 1
 R027: R{1,9} <= 1
 R028: R{1,10} <= 1
 R029: R{1,11} <= 1
 R030: R{1,12} <= 1
 R031: R{1,13} <= 1
 R032: R{1,14} <= 1
 R033: R{1,15} <= 1
 R034: R{2,0} <= 1
 R035: R{2,1} <= 1
 R036: R{2,2} <= 1
 R037: R{2,3} <= 1
 R038: R{2,4} <= 1
 R039: R{2,5} <= 1
 R040: R{2,6} <= 1
 R041: R{2,7} <= 1
 R042: R{2,8} <= 1
 R043: R{2,9} <= 1
 R044: R{2,10} <= 1
 R045: R{2,11} <= 1
 R046: R{2,12} <= 1
 R047: R{2,13} <= 1
 R048: R{2,14} <= 1
 R049: R{2,15} <= 1
 R050: R{3,0} <= 1
 R051: R{3,1} <= 1
 R052: R{3,2} <= 1
 R053: R{3,3} <= 1
 R054: R{3,4} <= 1
 R055: R{3,5} <= 1
 R056: R{3,6} <= 1
 R057: R{3,7} <= 1
 R058: R{3,8} <= 1
 R059: R{3,9} <= 1
 R060: R{3,10} <= 1
 R061: R{3,11} <= 1
 R062: R{3,12} <= 1
 R063: R{3,13} <= 1
 R064: R{3,14} <= 1
 R065: R{3,15} <= 1
 R066: R{3,16} <= 1
 R067: R{4,0} <= 1
 R068: R{4,1} <= 1
 R069: R{4,2} <= 1
 R070: R{4,3} <= 1
 R071: R{4,4} <= 1
 R072: R{4,5} <= 1
 R073: R{4,6} <= 1
 R074: R{4,7} <= 1
 R075: R{4,8} <= 1
 R076: R{4,9} <= 1
 R077: R{4,10} <= 1
 R078: R{4,11} <= 1
 R079: R{4,12} <= 1
 R080: R{4,13} <= 1
 R081: R{4,14} <= 1
 R082: R{4,15} <= 1
 R083: R{4,16} <= 1
 R084: R{4,17} <= 1
 R085: R{5,0} <= 1
 R086: R{5,1} <= 1
 R087: R{5,2} <= 1
 R088: R{5,3} <= 1
 R089: R{5,4} <= 1
 R090: R{5,5} <= 1
 R091: R{5,6} <= 1
 R092: R{5,7} <= 1
 R093: R{5,8} <= 1
 R094: R{6,0} <= 1
 R095: R{6,1} <= 1
 R096: R{6,2} <= 1
 R097: R{6,3} <= 1
 R098: R{6,4} <= 1
 R099: R{6,5} <= 1
 R0100: R{6,6} <= 1
 R0101: R{6,7} <= 1
 R0102: R{6,8} <= 1
 R0103: R{6,9} <= 1
 R0104: R{6,10} <= 1
 R0105: R{6,11} <= 1
 R0106: R{6,12} <= 1
 R0107: R{6,13} <= 1
 R1_0: R{0,0} + R{0,1} + R{0,2} + R{0,3} + R{0,4} + R{0,5} + R{0,6}
   + R{0,7} + R{0,8} + R{0,9} + R{0,10} + R{0,11} + R{0,12} + R{0,13}
   + R{0,14} + R{0,15} + R{0,16} + R{0,17} <= 1
 R1_1: R{1,0} + R{1,1} + R{1,2} + R{1,3} + R{1,4} + R{1,5} + R{1,6}
   + R{1,7} + R{1,8} + R{1,9} + R{1,10} + R{1,11} + R{1,12} + R{1,13}
   + R{1,14} + R{1,15} <= 1
 R1_2: R{2,0} + R{2,1} + R{2,2} + R{2,3} + R{2,4} + R{2,5} + R{2,6}
   + R{2,7} + R{2,8} + R{2,9} + R{2,10} + R{2,11} + R{2,12} + R{2,13}
   + R{2,14} + R{2,15} <= 1
 R1_3: R{3,0} + R{3,1} + R{3,2} + R{3,3} + R{3,4} + R{3,5} + R{3,6}
   + R{3,7} + R{3,8} + R{3,9} + R{3,10} + R{3,11} + R{3,12} + R{3,13}
   + R{3,14} + R{3,15} + R{3,16} <= 1
 R1_4: R{4,0} + R{4,1} + R{4,2} + R{4,3} + R{4,4} + R{4,5} + R{4,6}
   + R{4,7} + R{4,8} + R{4,9} + R{4,10} + R{4,11} + R{4,12} + R{4,13}
   + R{4,14} + R{4,15} + R{4,16} + R{4,17} <= 1
 R1_5: R{5,0} + R{5,1} + R{5,2} + R{5,3} + R{5,4} + R{5,5} + R{5,6}
   + R{5,7} + R{5,8} <= 1
 R1_6: R{6,0} + R{6,1} + R{6,2} + R{6,3} + R{6,4} + R{6,5} + R{6,6}
   + R{6,7} + R{6,8} + R{6,9} + R{6,10} + R{6,11} + R{6,12} + R{6,13} <= 1
 R2_0: 7 R{0,0} + 7 R{0,1} + 7 R{0,2} + 7 R{0,7} + 7 R{0,9} + 7 R{0,10}
   + 7 R{0,11} + 7 R{0,12} + 7 R{0,13} + 7 R{0,14} + 7 R{0,15} + 7 R{0,16}
   + 7 R{0,17} <= 7
 R2_1: <= 10
 R2_2: <= 0
 R2_3: 4 R{5,1} + 4 R{5,2} + 4 R{5,3} + 4 R{5,4} + 4 R{5,5} + 4 R{5,6}
   + 4 R{5,7} + 4 R{5,8} <= 4
 R2_4: <= 0
 R2_5: 5 R{5,1} + 5 R{5,2} + 5 R{5,3} + 5 R{5,4} + 5 R{5,5} + 5 R{5,6}
   <= 5
 R2_6: 9 R{1,6} + 10 R{6,1} + 10 R{6,2} + 10 R{6,3} + 10 R{6,4} + 10 R{6,5}
   + 10 R{6,6} + 10 R{6,7} + 10 R{6,8} + 10 R{6,9} + 10 R{6,11}
   + 10 R{6,12} <= 10
 R2_7: <= 0
 R2_8: <= 0
 R2_9: 12 R{4,1} + 12 R{4,2} + 12 R{4,3} + 12 R{4,4} + 12 R{4,5}
   + 12 R{4,6} + 12 R{4,7} + 12 R{4,8} + 12 R{4,9} + 12 R{4,10}
   + 12 R{4,11} + 12 R{4,12} + 12 R{4,13} + 12 R{4,14} + 12 R{4,15}
   + 12 R{4,16} + 12 R{4,17} <= 12
 R2_10: <= 8
 R2_11: <= 0
 R2_12: <= 0
 R2_13: <= 0
 R2_14: <= 0
 R2_15: 11 R{0,0} + 11 R{0,1} + 11 R{0,2} + 11 R{0,7} + 11 R{0,9}
   + 11 R{0,12} + 11 R{0,14} + 11 R{4,1} + 11 R{4,2} + 11 R{4,3}
   + 11 R{4,4} + 11 R{4,14} + 11 R{4,15} <= 11
 R2_16: <= 0
 R2_17: <= 0
 R2_18: <= 0
 R2_19: 11 R{0,6} + 11 R{0,8} + 11 R{2,9} + 11 R{2,15} + 11 R{4,1}
   + 11 R{4,2} + 11 R{4,3} + 11 R{4,4} + 11 R{4,5} + 11 R{4,6} + 11 R{4,8}
   + 11 R{4,10} + 11 R{4,11} + 11 R{4,12} + 11 R{4,13} + 11 R{4,14}
   + 11 R{4,15} + 11 R{4,17} + 11 R{5,6} <= 11
 R2_20: 13 R{0,5} + 13 R{0,10} + 13 R{0,15} + 13 R{1,4} + 13 R{1,6}
   + 13 R{1,8} + 13 R{1,12} + 13 R{2,3} + 13 R{2,5} + 13 R{2,7} + 13 R{2,8}
   + 13 R{2,10} + 13 R{2,12} + 13 R{2,13} + 13 R{2,14} + 13 R{3,1}
   + 13 R{3,2} + 13 R{3,3} + 13 R{3,5} + 5 R{3,7} + 13 R{3,9} + 13 R{3,10}
   + 10 R{3,11} + 13 R{3,15} + 4 R{4,5} + 13 R{4,7} + 13 R{4,9}
   + 13 R{4,13} + 13 R{5,2} + 13 R{5,3} + 10 R{5,5} <= 13
 R2_21: <= 0
 R2_22: <= 0
 R2_23: 14 R{4,6} + 14 R{4,11} + 14 R{4,16} + 14 R{6,2} + 14 R{6,3}
   + 14 R{6,5} + 14 R{6,6} + 12 R{6,8} + 14 R{6,11} + 12 R{6,12}
   + 14 R{6,13} <= 14
 R2_24: 10 R{0,13} + 10 R{0,15} + 10 R{1,8} + 10 R{1,9} + 10 R{1,11}
   + 10 R{1,15} + 10 R{2,8} + 10 R{2,11} + 10 R{3,1} + 10 R{3,2}
   + 10 R{3,3} + 10 R{3,4} + 10 R{3,5} + 10 R{3,6} + 10 R{3,7} + 10 R{3,8}
   + 10 R{3,9} + 10 R{3,10} + 10 R{3,12} + 10 R{3,13} + 10 R{3,14}
   + 10 R{3,16} <= 10
 R2_25: <= 13
 R2_26: 6 R{1,1} + 6 R{1,2} + 6 R{1,3} + 6 R{1,4} + 6 R{1,5} + 6 R{1,6}
   + 6 R{1,7} + 6 R{1,8} + 6 R{1,9} + 6 R{1,10} + 6 R{1,11} + 6 R{1,13}
   + 6 R{1,14} + 6 R{2,15} <= 6
 R2_27: 5 R{1,2} + 5 R{1,3} + 5 R{1,4} + 5 R{1,5} + 5 R{1,6} + 5 R{1,7}
   + 5 R{1,8} + 5 R{1,10} + 5 R{2,6} <= 5
 R2_28: <= 0
 R2_29: <= 0
 R2_30: <= 0
 R2_31: 6 R{6,1} + 6 R{6,2} + 6 R{6,4} + 6 R{6,5} + 6 R{6,6} + 6 R{6,7}
   + 6 R{6,8} + 6 R{6,9} + 6 R{6,12} + 6 R{6,13} <= 6
 R2_32: 7 R{0,4} + 7 R{0,5} + 7 R{0,8} + 7 R{5,5} + 7 R{5,7} + 7 R{5,8}
   <= 7
 R2_33: <= 0
 R2_34: 5 R{0,0} + 5 R{0,1} + 5 R{0,2} + 5 R{0,7} + 5 R{0,9} + 5 R{0,10}
   + 5 R{0,11} + 5 R{0,12} + 5 R{0,13} + 5 R{0,14} + 5 R{0,15} + 5 R{0,16}
   + 5 R{0,17} + 5 R{3,8} + 5 R{3,13} <= 5
 R2_35: 13 R{3,9} <= 13
 R2_36: 15 R{1,1} + 15 R{1,2} + 15 R{1,3} + 15 R{1,4} + 15 R{1,5}
   + 15 R{1,6} + 15 R{1,8} + 15 R{1,10} + 15 R{1,12} <= 16
 R2_37: 5 R{3,11} + 5 R{5,1} + 5 R{5,4} + 5 R{5,5} <= 5
 R2_38: <= 0
 R2_39: 15 R{0,0} + 15 R{0,1} + 15 R{0,2} + 15 R{0,7} + 15 R{0,9}
   + 15 R{0,10} + 15 R{0,12} + 15 R{0,13} + 15 R{0,15} + 15 R{0,16}
   + 15 R{0,17} <= 17
 R2_40: 15 R{2,1} + 15 R{2,2} + 15 R{2,3} + 15 R{2,4} + 15 R{2,5}
   + 15 R{2,6} + 15 R{2,7} + 15 R{2,9} + 15 R{2,10} + 15 R{2,12}
   + 15 R{2,15} <= 15
 R2_41: <= 5
 R2_42: 4 R{2,1} + 4 R{2,2} + 4 R{2,3} + 4 R{2,4} + 4 R{2,5} + 4 R{2,7}
   + 4 R{2,8} + 4 R{2,11} + 4 R{2,13} <= 4
 R2_43: <= 0
 R2_44: <= 0
 R2_45: <= 0
 R2_46: 9 R{0,11} + 9 R{0,14} + 9 R{4,5} + 9 R{4,12} + 9 R{4,17} <= 9
 R2_47: <= 7
 R2_48: 4 R{4,1} + 4 R{4,2} + 4 R{4,3} + 4 R{4,4} + 4 R{4,5} + 4 R{4,6}
   + 4 R{4,7} + 4 R{4,8} + 4 R{4,9} + 4 R{4,10} + 4 R{4,11} + 4 R{4,12}
   + 4 R{4,13} + 4 R{4,14} + 4 R{4,15} + 4 R{4,16} + 4 R{4,17} <= 4
 R2_49: <= 0
 R2_50: <= 0
 R2_51: <= 0
 R2_52: <= 0
 R2_53: 13 R{4,1} + 13 R{4,2} + 13 R{4,3} + 13 R{4,4} + 13 R{4,5}
   + 13 R{4,6} + 13 R{4,7} + 13 R{4,9} + 13 R{4,11} + 13 R{4,12}
   + 13 R{4,16} + 13 R{4,17} <= 13
 R2_54: 9 R{3,1} + 9 R{3,2} + 9 R{3,3} + 9 R{3,4} + 9 R{3,5} + 9 R{3,6}
   + 9 R{3,8} + 9 R{3,9} + 9 R{3,10} + 9 R{3,12} + 9 R{3,13} + 9 R{3,14}
   <= 9
 R2_55: <= 0
 R2_56: 6 R{0,1} + 6 R{0,2} + 6 R{0,14} + 6 R{3,2} + 6 R{3,3} + 6 R{3,4}
   + 6 R{3,6} + 6 R{3,9} + 6 R{3,10} + 6 R{3,12} + 6 R{3,14} + 6 R{4,4}
   + 6 R{4,8} + 6 R{4,13} + 6 R{6,2} + 6 R{6,3} + 6 R{6,5} + 6 R{6,10}
   <= 6
 R2_57: <= 0
 R2_58: <= 0
 R2_59: 10 R{3,9} + 10 R{6,9} + 10 R{6,11} <= 10
 R2_60: <= 0
 R2_61: 9 R{3,12} <= 9
 R2_62: <= 0
 R2_63: <= 0
 R2_64: <= 0
 R2_65: 5 R{0,11} + 5 R{6,1} + 5 R{6,2} + 5 R{6,3} + 5 R{6,4} + 5 R{6,5}
   + 5 R{6,6} + 5 R{6,7} + 5 R{6,8} + 5 R{6,10} + 5 R{6,12} + 5 R{6,13}
   <= 5
 R2_66: 7 R{1,7} <= 7
 R2_67: 3 R{3,2} + 3 R{3,3} + 3 R{3,4} + 3 R{3,6} + 3 R{3,9} + 3 R{3,10}
   + 3 R{3,14} + 3 R{6,8} + 3 R{6,12} <= 3
 R2_68: 6 R{4,1} + 6 R{4,6} + 6 R{4,7} + 6 R{4,11} + 6 R{4,16} <= 6
 R2_69: 7 R{0,0} + 7 R{0,1} + 7 R{0,2} + 7 R{0,7} + 7 R{0,10} + 7 R{0,11}
   + 7 R{0,12} + 7 R{0,14} + 7 R{0,16} + 7 R{0,17} + 7 R{1,12} + 7 R{4,1}
   + 7 R{4,2} + 7 R{4,3} + 7 R{4,4} + 7 R{4,5} + 7 R{4,6} + 7 R{4,7}
   + 7 R{4,8} + 7 R{4,9} + 7 R{4,10} + 7 R{4,11} + 7 R{4,12} + 7 R{4,13}
   + 7 R{4,14} + 7 R{4,15} + 7 R{4,16} + 7 R{4,17} <= 7
 R2_70: <= 11
 R2_71: <= 7
 R2_72: <= 0
 R2_73: 11 R{0,0} + 11 R{0,1} + 11 R{0,2} + 11 R{0,7} + 11 R{0,9}
   + 11 R{0,10} + 11 R{0,11} + 11 R{0,12} + 11 R{0,13} + 11 R{0,14}
   + 11 R{0,15} + 11 R{0,16} + 11 R{0,17} <= 11
 R2_74: <= 5
 R2_75: 8 R{6,1} + 8 R{6,2} + 8 R{6,3} + 8 R{6,4} + 8 R{6,5} + 8 R{6,6}
   + 8 R{6,7} + 8 R{6,8} + 8 R{6,9} + 8 R{6,10} + 8 R{6,11} + 8 R{6,12}
   + 8 R{6,13} <= 8
 R2_76: 12 R{0,4} + 12 R{0,8} + 12 R{0,11} + 12 R{1,7} + 12 R{1,9}
   + 12 R{2,9} + 12 R{3,3} + 12 R{3,12} <= 12
 R2_77: 7 R{0,1} + 7 R{0,2} + 7 R{1,2} + 7 R{1,3} + 7 R{1,5} + 7 R{1,8}
   + 7 R{1,9} + 7 R{1,10} + 7 R{2,2} + 7 R{2,3} + 7 R{2,4} + 7 R{2,6}
   + 7 R{2,9} + 7 R{3,6} + 7 R{3,8} + 7 R{3,13} + 7 R{4,2} + 7 R{4,4}
   + 7 R{4,8} + 7 R{6,3} + 7 R{6,10} + 7 R{6,11} <= 7
Bounds
End
